; benchmark generated from python API
(set-info :status unknown)
(declare-datatypes ((IntState 0)) (((Mk1 (val1 Int)) (Mk2 (val2 Int)))))
 (declare-fun c_main_~n~22 () Int)
(declare-fun c_main_~f1~22 () Int)
(declare-fun |c_main_#t~ret12| () Int)
(declare-fun |c_main_#t~short13| () Bool)
(assert
 (let (($x79 (exists ((v_nnf_7_st IntState) (val!99 Int) )(let (($x114 (<= c_main_~n~22 2)))
 (let (($x46 (and (<= (+ (* 2 (val2 v_nnf_7_st)) c_main_~f1~22 1) |c_main_#t~ret12|) (<= c_main_~f1~22 (val2 v_nnf_7_st)) $x114)))
 (let (($x52 (not (= v_nnf_7_st (Mk1 val!99)))))
 (and $x52 $x46)))))
 ))
 (let (($x114 (<= c_main_~n~22 2)))
 (let (($x13 (exists ((v_nnf_7 Int) )(let (($x114 (<= c_main_~n~22 2)))
 (and (<= (+ (* 2 v_nnf_7) c_main_~f1~22 1) |c_main_#t~ret12|) (<= c_main_~f1~22 v_nnf_7) $x114)))
 ))
 (let (($x30 (= |c_main_#t~short13| (= |c_main_#t~ret12| c_main_~n~22))))
 (and (and $x30 $x13) (not (and $x114 $x79))))))))
(check-sat)
